(set-logic HORN)
(declare-fun state (Int Int Int (Array Int Int) Int (Array Int Int) Int (Array Int Int) Int Int Bool Bool Int Int Int Int Int Int Int Int Int Int) Bool)
(assert (forall ((|A_2| Int) (|B_2| Int) (|C_1| Int) (|D_1| (Array Int Int)) (|E_1| Int) (|F_1| (Array Int Int)) (|G_1| Int) (|H_1| (Array Int Int)) (|I_1| Int) (|.y.5| Int) (|.loc.6| Bool) (|.loc.7| Bool) (|T_1| Int) (|V_0| Int) (|Q_1| Int) (|N_2| Int) (|W_0| Int) (|X_0| Int) (|Q_2| Int) (|N_3| Int) (|T_2| Int) (|W_2| Int) (|.loc.10| Bool) (|.x.12| (Array Int Int)) (|.x.10| (Array Int Int)) (|.x.8| (Array Int Int)) (|.x.9| Int) (|.x.11| Int) (|.loc.11| Bool) (|P_1| Int) (|.x.7| Int) (|.x.13| Int) (|.y.8| Int) (|.y.9| Int) (|.xtv.1| Int) (|.xtv.2| Int) (|.xtv.3| Int) (|.xtv.4| Int) (|.xtv.5| Int) (|.xtv.6| Int) (|.xpv.1| Int) (|.xpv.2| Int) (|.xpv.3| Int) (|.xpv.4| Int)) (=> (and (not .loc.6) (not .loc.7)) (state |A_2| |B_2| |C_1| |D_1| |E_1| |F_1| |G_1| |H_1| |I_1| |.y.5| |.loc.6| |.loc.7| |T_1| |V_0| |Q_1| |N_2| |W_0| |X_0| |Q_2| |N_3| |T_2| |W_2|))))
(assert (forall ((|A_2| Int) (|B_2| Int) (|C_1| Int) (|D_1| (Array Int Int)) (|E_1| Int) (|F_1| (Array Int Int)) (|G_1| Int) (|H_1| (Array Int Int)) (|I_1| Int) (|.y.5| Int) (|.loc.6| Bool) (|.loc.7| Bool) (|T_1| Int) (|V_0| Int) (|Q_1| Int) (|N_2| Int) (|W_0| Int) (|X_0| Int) (|Q_2| Int) (|N_3| Int) (|T_2| Int) (|W_2| Int) (|.loc.10| Bool) (|.x.12| (Array Int Int)) (|.x.10| (Array Int Int)) (|.x.8| (Array Int Int)) (|.x.9| Int) (|.x.11| Int) (|.loc.11| Bool) (|P_1| Int) (|.x.7| Int) (|.x.13| Int) (|.y.8| Int) (|.y.9| Int) (|.xtv.1| Int) (|.xtv.2| Int) (|.xtv.3| Int) (|.xtv.4| Int) (|.xtv.5| Int) (|.xtv.6| Int) (|.xpv.1| Int) (|.xpv.2| Int) (|.xpv.3| Int) (|.xpv.4| Int)) (=> (and (state |A_2| |B_2| |C_1| |D_1| |E_1| |F_1| |G_1| |H_1| |I_1| |.y.5| |.loc.6| |.loc.7| |T_1| |V_0| |Q_1| |N_2| |W_0| |X_0| |Q_2| |N_3| |T_2| |W_2|) (let ((.def_32 (not .loc.6))) (let ((.def_33 (not .loc.7))) (let ((.def_44 (= E_1 .x.9))) (let ((.def_48 (= G_1 .x.11))) (let ((.def_68 (<= (to_int (* (/ 1 16777216) (to_real (* 16777216 I_1)))) C_1))) (let ((.def_76 (<= A_2 0))) (let ((.def_79 (not (<= N_2 0)))) (let ((.def_80 (<= G_1 0))) (let ((.def_116 (not .def_80))) (let ((.def_119 (<= E_1 0))) (let ((.def_120 (not .def_119))) (let ((.def_130 (or .def_119 (not (<= T_1 0))))) (let ((.def_132 (= A_2 .x.7))) (let ((.def_151 (not .loc.11))) (let ((.def_164 (<= B_2 0))) (or (or (and (and (not .loc.10) (and (and (= H_1 .x.12) (and (and (= F_1 .x.10) (and (= D_1 .x.8) .def_44)) .def_48)) .loc.11)) (or (and .def_33 (and .loc.6 (and (= P_1 0) (and (and (= B_2 .x.7) (= I_1 .x.13)) .def_68)))) (and (= .y.5 .x.13) (and (and (and (or (not (<= Q_1 0)) .def_76) (and (or .def_79 .def_80) (and (= (+ (select H_1 N_2) (+ (* (- 1) (select D_1 Q_1)) (select F_1 T_1))) 0) (and (= (+ E_1 (+ I_1 (* (- 1) T_1))) 0) (and (= (+ A_2 (+ I_1 (* (- 1) Q_1))) 0) (and (= (+ G_1 (+ I_1 (* (- 1) N_2))) 0) (and (and (not .def_76) (and (and (not (<= (to_int (* (/ 1 16777216) (to_real (* 16777216 .y.5)))) I_1)) (and (and .loc.7 .def_32) (= (+ I_1 (* (- 1) P_1)) (- 1)))) .def_116)) .def_120))))))) .def_130) .def_132)))) (and (not (<= .x.11 0)) (and (not (<= .x.9 0)) (and (not (<= .y.8 0)) (and (not (<= P_1 0)) (and (= .y.9 0) (and (and .def_132 (and .def_32 (and .def_33 .loc.10))) .def_151))))))) (and (= I_1 P_1) (and (= B_2 .y.8) (and (or .def_80 (not (<= X_0 0))) (and (or .def_79 .def_164) (and (not .def_68) (and (= (+ C_1 (+ G_1 (* (- 1) X_0))) 0) (and (= (+ V_0 (+ (* (- 1) Q_1) W_0)) 0) (and (= (+ B_2 (+ C_1 (* (- 1) N_2))) 0) (and (= (+ C_1 (+ E_1 (* (- 1) T_1))) 0) (and (not .def_164) (and (= (+ C_1 (* (- 1) .y.9)) (- 1)) (and (= .x.12 (store H_1 X_0 W_0)) (and (= .x.8 (store D_1 N_2 Q_1)) (and (= .x.10 (store F_1 T_1 V_0)) (and .def_151 (and .def_132 (and .def_130 (and .def_120 (and .def_116 (and .loc.10 (and .def_33 (and .loc.6 (and .def_44 .def_48)))))))))))))))))))))))))))))))))))))))) (state |.x.7| |.y.8| |.y.9| |.x.8| |.x.9| |.x.10| |.x.11| |.x.12| |P_1| |.x.13| |.loc.10| |.loc.11| |.xtv.1| |.xtv.2| |.xtv.3| |.xtv.4| |.xtv.5| |.xtv.6| |.xpv.1| |.xpv.2| |.xpv.3| |.xpv.4|))))
(assert (forall ((|A_2| Int) (|B_2| Int) (|C_1| Int) (|D_1| (Array Int Int)) (|E_1| Int) (|F_1| (Array Int Int)) (|G_1| Int) (|H_1| (Array Int Int)) (|I_1| Int) (|.y.5| Int) (|.loc.6| Bool) (|.loc.7| Bool) (|T_1| Int) (|V_0| Int) (|Q_1| Int) (|N_2| Int) (|W_0| Int) (|X_0| Int) (|Q_2| Int) (|N_3| Int) (|T_2| Int) (|W_2| Int) (|.loc.10| Bool) (|.x.12| (Array Int Int)) (|.x.10| (Array Int Int)) (|.x.8| (Array Int Int)) (|.x.9| Int) (|.x.11| Int) (|.loc.11| Bool) (|P_1| Int) (|.x.7| Int) (|.x.13| Int) (|.y.8| Int) (|.y.9| Int) (|.xtv.1| Int) (|.xtv.2| Int) (|.xtv.3| Int) (|.xtv.4| Int) (|.xtv.5| Int) (|.xtv.6| Int) (|.xpv.1| Int) (|.xpv.2| Int) (|.xpv.3| Int) (|.xpv.4| Int)) (=> (state |A_2| |B_2| |C_1| |D_1| |E_1| |F_1| |G_1| |H_1| |I_1| |.y.5| |.loc.6| |.loc.7| |T_1| |V_0| |Q_1| |N_2| |W_0| |X_0| |Q_2| |N_3| |T_2| |W_2|) (let ((.def_76 (<= A_2 0))) (let ((.def_80 (<= G_1 0))) (let ((.def_119 (<= E_1 0))) (not (and (and .loc.7 (not .loc.6)) (and (and (and (and (and (and (and (= (+ W_2 (+ (* (- 1) (select D_1 Q_2)) (select F_1 T_2))) 0) (and (and (not .def_76) (and (not .def_80) (and (not (<= (to_int (* (/ 1 16777216) (to_real (* 16777216 .y.5)))) I_1)) (not .def_119)))) (= (+ G_1 (+ I_1 (* (- 1) N_3))) 0))) (= (+ E_1 (+ I_1 (* (- 1) T_2))) 0)) (= (+ A_2 (+ I_1 (* (- 1) Q_2))) 0)) (not (= W_2 (select H_1 N_3)))) (or .def_119 (not (<= T_2 0)))) (or .def_80 (not (<= N_3 0)))) (or .def_76 (not (<= Q_2 0))))))))))))
(check-sat)
